Route #1: 1 1 43 56 64 62 74 13 52 34 8 53 58 72 32 40 12 26 17 73 1 
Route #2: 1 42 61 69 71 70 20 47 5 15 27 46 14 7 67 75 4 29 30 33 1 
Route #3: 1 41 23 49 24 18 3 35 54 57 37 36 21 28 22 2 48 45 68 6 51 16 63 1 
Route #4: 1 44 50 55 25 9 39 31 10 38 65 66 11 59 19 60 1 

Cost 964.704
Time 1.3603


 * Another infos *

 Iterations: 76 Time: 1.3603 sec - 0.0227 min - 0.0004 horas
0.0000 h 0.0227 min
Problem dimension: 76
